% gStats = {gardenSoilType, gardenShadeType};
% soilType = {Normal, Clay, Dry};
% shadeType = {fullShade, halfShade, fullSun};
%% soilType: 1 = normal, 2 = clay, 3 = dry
%% shadeType: 1 = fullShade, 2 = halfShade, 3 = fullSun

limit = 5;

statsPerPlot = [|
	1, 3 | %Normal soil with fullSun
	1, 3 |
	1, 3 |
	1, 3 |
	1, 3 |];